\ This file has been generated by DOcplex
\ ENCODING=ISO-8859-1
\Problem name: Qrandom442_6.lp

Minimize
 obj: - 9115864 x0 - 4557932 x1 - 2278966 x2 - 9114160 x3 - 4557080 x4
      - 2278540 x5 + [ 5291296 x0^2 + 5291296 x0*x1 + 2645648 x0*x2
      + 10431552 x0*x3 + 5215776 x0*x4 + 2607888 x0*x5 + 1322824 x1^2
      + 1322824 x1*x2 + 5215776 x1*x3 + 2607888 x1*x4 + 1303944 x1*x5
      + 330706 x2^2 + 2607888 x2*x3 + 1303944 x2*x4 + 651972 x2*x5
      + 5216320 x3^2 + 5216320 x3*x4 + 2608160 x3*x5 + 1304080 x4^2
      + 1304080 x4*x5 + 326020 x5^2 ]/2 + 7975828
Subject To

Bounds
 0 <= x0 <= 1
 0 <= x1 <= 1
 0 <= x2 <= 1
 0 <= x3 <= 1
 0 <= x4 <= 1
 0 <= x5 <= 1

Binaries
 x0 x1 x2 x3 x4 x5
End
